6 6 80
5 5 1 3 1 6 3 5 3 2 3 14 24 24 34 36 52 52 69 69 79 
5 1 1 1 2 4 1 4 2 4 3 6 18 18 36 36 48 48 70 70 80 
4 2 1 1 3 3 2 3 3 22 36 38 50 50 71 71 80 
6 6 1 6 2 5 2 2 2 6 4 5 4 6 15 15 28 28 41 42 61 61 70 71 80 
10 1 1 2 1 2 1 4 1 4 1 1 3 6 4 6 4 2 3 5 4 0 6 6 14 14 22 22 28 28 34 36 38 42 52 52 54 61 69 69 71 
10 6 1 5 1 5 1 3 1 3 1 5 2 6 3 3 2 2 2 5 3 0 6 6 10 10 14 14 20 20 24 24 26 28 36 36 40 40 42 42 50 
